This is Ipopt version 3.11.9, running with linear solver mumps.
NOTE: Other linear solvers might be more efficient (see Ipopt documentation).

Number of nonzeros in equality constraint Jacobian...:    16443
Number of nonzeros in inequality constraint Jacobian.:    31320
Number of nonzeros in Lagrangian Hessian.............:        0

Total number of variables............................:      783
                     variables with only lower bounds:        0
                variables with lower and upper bounds:        0
                     variables with only upper bounds:        0
Total number of equality constraints.................:       21
Total number of inequality constraints...............:       40
        inequality constraints with only lower bounds:        0
   inequality constraints with lower and upper bounds:       40
        inequality constraints with only upper bounds:        0

iter    objective    inf_pr   inf_du lg(mu)  ||d||  lg(rg) alpha_du alpha_pr  ls
   0  2.4898891e+00 1.53e-16 1.02e-01   0.0 0.00e+00    -  0.00e+00 0.00e+00   0
   1  2.4595269e+00 1.37e-16 1.92e-01  -3.4 4.14e-02    -  9.95e-01 1.00e+00f  1
   2  2.2574658e+00 1.39e-16 4.91e-02  -4.1 2.78e-02    -  1.00e+00 1.00e+00h  1
   3  2.2103183e+00 1.18e-16 3.61e-02  -5.5 2.72e-02    -  1.00e+00 1.00e+00h  1
   4  2.1582248e+00 1.11e-16 2.46e-02  -6.1 3.24e-02    -  1.00e+00 1.00e+00h  1
   5  2.1098379e+00 1.71e-03 3.70e-02  -5.0 5.92e-02    -  1.00e+00 9.87e-01h  1
   6  2.0928688e+00 6.45e-04 2.53e-02  -4.8 2.68e-02    -  1.00e+00 3.74e-01h  1
   7  2.0619015e+00 1.18e-16 1.82e-02  -4.5 4.53e-02    -  1.00e+00 4.83e-01h  1
   8  2.0115578e+00 1.45e-03 3.58e-02  -4.8 6.82e-02    -  1.00e+00 8.83e-01h  1
   9  1.9903351e+00 8.72e-05 3.41e-02  -4.5 2.62e-02    -  1.00e+00 1.00e+00h  1
iter    objective    inf_pr   inf_du lg(mu)  ||d||  lg(rg) alpha_du alpha_pr  ls
  10  1.9581976e+00 5.80e-06 2.72e-02  -4.5 4.24e-02    -  9.99e-01 1.00e+00h  1
  11  1.9276156e+00 1.42e-04 2.31e-02  -4.7 5.77e-02    -  1.00e+00 1.00e+00h  1
  12  1.9163877e+00 1.11e-16 2.59e-02  -4.5 2.21e-02    -  1.00e+00 1.00e+00h  1
  13  1.9073771e+00 1.05e-16 1.27e-02  -4.8 7.86e-03    -  1.00e+00 1.00e+00h  1
  14  1.8938679e+00 1.10e-16 1.43e-02  -5.4 1.69e-02    -  1.00e+00 1.00e+00h  1
  15  1.8861859e+00 1.51e-04 1.52e-02  -5.4 3.26e-02    -  1.00e+00 4.64e-01h  1
  16  1.8746232e+00 1.90e-04 1.51e-02  -5.6 2.75e-02    -  1.00e+00 7.52e-01h  1
  17  1.8659591e+00 1.29e-04 1.61e-02  -5.0 3.34e-02    -  1.00e+00 7.09e-01h  1
  18  1.8581231e+00 9.03e-04 1.11e-02  -5.0 4.33e-02    -  1.00e+00 6.68e-01h  1
  19  1.8563401e+00 5.49e-05 7.22e-02  -4.3 1.59e-02    -  1.00e+00 2.36e-01h  1
iter    objective    inf_pr   inf_du lg(mu)  ||d||  lg(rg) alpha_du alpha_pr  ls
  20  1.8563949e+00 8.15e-04 8.61e-02  -3.7 4.03e-02    -  9.95e-01 6.25e-01h  1
  21  1.8476311e+00 1.23e-16 1.23e-02  -3.8 1.77e-02    -  9.40e-01 1.00e+00h  1
  22  1.8341896e+00 1.53e-16 1.70e-02  -3.9 4.18e-02    -  9.91e-01 1.00e+00h  1
  23  1.8303463e+00 1.09e-16 1.10e-02  -4.9 5.25e-03    -  9.99e-01 1.00e+00h  1
  24  1.8231036e+00 1.13e-16 9.60e-03  -4.9 1.66e-02    -  1.00e+00 1.00e+00h  1
  25  1.8190500e+00 3.68e-04 1.12e-02  -5.0 2.47e-02    -  1.00e+00 6.49e-01h  1
  26  1.8155560e+00 2.31e-04 1.24e-02  -4.8 1.07e-02    -  1.00e+00 9.71e-01h  1
  27  1.8084587e+00 1.25e-16 9.77e-03  -5.4 1.57e-02    -  1.00e+00 1.00e+00h  1
  28  1.8046328e+00 2.41e-03 1.04e-02  -4.7 1.30e-02    -  1.00e+00 1.00e+00h  1
  29  1.8016703e+00 9.71e-17 6.99e-03  -5.0 9.92e-03    -  1.00e+00 1.00e+00h  1
iter    objective    inf_pr   inf_du lg(mu)  ||d||  lg(rg) alpha_du alpha_pr  ls
  30  1.7983890e+00 9.71e-17 8.43e-03  -4.8 1.07e-02    -  1.00e+00 1.00e+00h  1
  31  1.7938492e+00 6.73e-05 8.89e-03  -5.3 2.22e-02    -  1.00e+00 1.00e+00h  1
  32  1.7906401e+00 1.52e-04 6.17e-03  -6.5 1.55e-02    -  1.00e+00 1.00e+00h  1
  33  1.7875678e+00 9.15e-05 5.95e-03  -5.2 1.87e-02    -  1.00e+00 6.61e-01h  1
  34  1.7838295e+00 4.51e-04 1.08e-02  -4.6 1.36e-02    -  1.00e+00 9.19e-01h  1
  35  1.7842388e+00 3.20e-03 8.99e-02  -3.6 4.19e-02    -  8.94e-01 3.67e-01f  1
  36  1.7830369e+00 9.71e-17 6.58e-03  -3.8 7.42e-03    -  1.00e+00 1.00e+00h  1
  37  1.7769929e+00 2.08e-16 6.88e-03  -4.9 3.13e-02    -  1.00e+00 1.00e+00h  1
  38  1.7678416e+00 1.79e-03 6.31e-03  -4.5 5.20e-02    -  1.00e+00 9.37e-01h  1
  39  1.7637260e+00 1.66e-04 6.15e-03  -5.4 2.06e-02    -  1.00e+00 1.00e+00h  1
iter    objective    inf_pr   inf_du lg(mu)  ||d||  lg(rg) alpha_du alpha_pr  ls
  40  1.7606522e+00 9.71e-17 4.92e-03  -4.7 8.80e-03    -  1.00e+00 9.33e-01h  1
  41  1.7579804e+00 1.67e-16 5.48e-03  -5.2 1.24e-02    -  1.00e+00 1.00e+00h  1
  42  1.7555253e+00 8.61e-05 6.67e-03  -5.2 1.23e-02    -  1.00e+00 9.96e-01h  1
  43  1.7537456e+00 1.11e-16 5.50e-03  -5.5 6.96e-03    -  1.00e+00 1.00e+00h  1
  44  1.7519460e+00 9.02e-17 3.70e-03  -5.6 6.48e-03    -  1.00e+00 9.61e-01h  1

Number of Iterations....: 44

                                   (scaled)                 (unscaled)
Objective...............:   1.7519459821385738e-01    1.7519459821385737e+00
Dual infeasibility......:   3.7034796042993597e-03    3.7034796042993597e-02
Constraint violation....:   9.0205620750793969e-17    9.0205620750793969e-17
Complementarity.........:   3.0451103751501733e-06    3.0451103751501731e-05
Overall NLP error.......:   3.7034796042993597e-03    3.7034796042993597e-02


Number of objective function evaluations             = 45
Number of objective gradient evaluations             = 45
Number of equality constraint evaluations            = 45
Number of inequality constraint evaluations          = 45
Number of equality constraint Jacobian evaluations   = 45
Number of inequality constraint Jacobian evaluations = 45
Number of Lagrangian Hessian evaluations             = 0
Total CPU secs in IPOPT (w/o function evaluations)   =      2.514
Total CPU secs in NLP function evaluations           =    125.019

EXIT: Optimal Solution Found.
